benchmark/results/graph__10-1000-0.10-03_1/graph__10-1000-0.10-03_1_Quinton_Benders_primal_sub.lp
\ This file has been generated by DOcplex
\ ENCODING=ISO-8859-1
\Problem name: Quinton Benders_primal_sub

Maximize
 obj: tau
Subject To
 c1: tau <= 0.001203369434
 c2: y_a0_proc_0 + y_a0_proc_1 + y_a0_proc_2 - tau = 0
 c3: y_a0_proc_0 <= 0
 c4: y_a0_proc_1 <= 1
 c5: y_a0_proc_2 <= 0
 c6: tau <= 0.001483679525
 c7: y_a1_proc_0 + y_a1_proc_1 + y_a1_proc_2 - tau = 0
 c8: y_a1_proc_0 <= 0
 c9: y_a1_proc_1 <= 0
 c10: y_a1_proc_2 <= 1
 c11: tau <= 0.000999000999
 c12: y_a2_proc_0 + y_a2_proc_1 + y_a2_proc_2 - tau = 0
 c13: y_a2_proc_0 <= 0
 c14: y_a2_proc_1 <= 0
 c15: y_a2_proc_2 <= 1
 c16: tau <= 0.001652892562
 c17: y_a3_proc_0 + y_a3_proc_2 - tau = 0
 c18: y_a3_proc_0 <= 0
 c19: y_a3_proc_2 <= 1
 c20: tau <= 0.002840909091
 c21: y_a4_proc_0 + y_a4_proc_1 + y_a4_proc_2 - tau = 0
 c22: y_a4_proc_0 <= 0
 c23: y_a4_proc_1 <= 1
 c24: y_a4_proc_2 <= 0
 c25: tau <= 0.001398601399
 c26: y_a5_proc_1 - tau = 0
 c27: y_a5_proc_1 <= 1
 c28: tau <= 0.001070663812
 c29: y_a6_proc_0 + y_a6_proc_1 + y_a6_proc_2 - tau = 0
 c30: y_a6_proc_0 <= 0
 c31: y_a6_proc_1 <= 1
 c32: y_a6_proc_2 <= 0
 c33: tau <= 0.001342281879
 c34: y_a7_proc_0 + y_a7_proc_1 + y_a7_proc_2 - tau = 0
 c35: y_a7_proc_0 <= 0
 c36: y_a7_proc_1 <= 0
 c37: y_a7_proc_2 <= 1
 c38: tau <= 0.000969932105
 c39: y_a8_proc_0 + y_a8_proc_1 - tau = 0
 c40: y_a8_proc_0 <= 0
 c41: y_a8_proc_1 <= 1
 c42: tau <= 0.000979431929
 c43: y_a9_proc_1 + y_a9_proc_2 - tau = 0
 c44: y_a9_proc_1 <= 0
 c45: y_a9_proc_2 <= 1
 c46: u_a0 - u_a1 - 551 y_a1_proc_0 - 1071 y_a1_proc_1 - 674 y_a1_proc_2 >= 0
 c47: u_a1 - u_a2 - 1014 y_a2_proc_0 - 1219 y_a2_proc_1 - 1001 y_a2_proc_2 >= 0
 c48: u_a3 - u_a1 - 551 y_a1_proc_0 - 1071 y_a1_proc_1 - 674 y_a1_proc_2 >= -1
 c49: u_a4 - u_a3 - 728 y_a3_proc_0 - 605 y_a3_proc_2 >= 0
 c50: u_a5 - u_a0 - 623 y_a0_proc_0 - 831 y_a0_proc_1 - 1188 y_a0_proc_2 >= 0
 c51: u_a2 - u_a6 - 872 y_a6_proc_0 - 934 y_a6_proc_1 - 1188 y_a6_proc_2 >= 0
 c52: u_a7 - u_a3 - 728 y_a3_proc_0 - 605 y_a3_proc_2 >= 0
 c53: u_a8 - u_a5 - 715 y_a5_proc_1 >= 0
 c54: u_a2 - u_a9 - 1055 y_a9_proc_1 - 1021 y_a9_proc_2 >= 0
 c55: u_a9 - u_a7 - 1026 y_a7_proc_0 - 794 y_a7_proc_1 - 745 y_a7_proc_2 >= 0
 c56: - 1134 y_a4_proc_0 - 352 y_a4_proc_1 - 1233 y_a4_proc_2 >= -1
 c57: u_a9 - u_a3 - 728 y_a3_proc_0 - 605 y_a3_proc_2 >= 0
 c58: u_a4 - u_a8 - 1280 y_a8_proc_0 - 1031 y_a8_proc_1 >= 0
 c59: u_a6 - u_a1 - 551 y_a1_proc_0 - 1071 y_a1_proc_1 - 674 y_a1_proc_2 >= -1
 c60: u_a6 - u_a0 - 623 y_a0_proc_0 - 831 y_a0_proc_1 - 1188 y_a0_proc_2 >= -1
 c61: u_a5 - u_a4 - 1134 y_a4_proc_0 - 352 y_a4_proc_1 - 1233 y_a4_proc_2 >= -1
 c62: u_a9 - u_a0 - 623 y_a0_proc_0 - 831 y_a0_proc_1 - 1188 y_a0_proc_2 >= -1
 c63: u_a1 - u_a0 - 1188 y_a0_proc_2 >= -2560
 c64: u_a1 - u_a0 - 831 y_a0_proc_1 >= -2560
 c65: u_a1 - u_a0 - 623 y_a0_proc_0 >= -3840
 c66: u_a0 - u_a1 - 674 y_a1_proc_2 >= -1
 c67: u_a0 - u_a1 - 1071 y_a1_proc_1 >= -1
 c68: u_a0 - u_a1 - 551 y_a1_proc_0 >= -1281
 c69: u_a2 - u_a0 - 1188 y_a0_proc_2 >= -2561
 c70: u_a2 - u_a0 - 831 y_a0_proc_1 >= -2561
 c71: u_a2 - u_a0 - 623 y_a0_proc_0 >= -3841
 c72: u_a0 - u_a2 - 1001 y_a2_proc_2 >= 0
 c73: u_a0 - u_a2 - 1219 y_a2_proc_1 >= 0
 c74: u_a0 - u_a2 - 1014 y_a2_proc_0 >= -1280
 c75: u_a3 - u_a0 - 1188 y_a0_proc_2 >= -2561
 c76: u_a3 - u_a0 - 623 y_a0_proc_0 >= -3841
 c77: u_a0 - u_a3 - 605 y_a3_proc_2 >= 0
 c78: u_a0 - u_a3 - 728 y_a3_proc_0 >= -1280
 c79: u_a4 - u_a0 - 1188 y_a0_proc_2 >= -2560
 c80: u_a4 - u_a0 - 831 y_a0_proc_1 >= 0
 c81: u_a4 - u_a0 - 623 y_a0_proc_0 >= -2560
 c82: u_a0 - u_a4 - 1233 y_a4_proc_2 >= -2561
 c83: u_a0 - u_a4 - 352 y_a4_proc_1 >= -1
 c84: u_a0 - u_a4 - 1134 y_a4_proc_0 >= -2561
 c85: u_a5 - u_a0 - 831 y_a0_proc_1 >= 0
 c86: u_a0 - u_a5 - 715 y_a5_proc_1 >= -1
 c87: u_a6 - u_a0 - 1188 y_a0_proc_2 >= -2561
 c88: u_a6 - u_a0 - 831 y_a0_proc_1 >= -1
 c89: u_a6 - u_a0 - 623 y_a0_proc_0 >= -2561
 c90: u_a0 - u_a6 - 1188 y_a6_proc_2 >= -2560
 c91: u_a0 - u_a6 - 934 y_a6_proc_1 >= 0
 c92: u_a0 - u_a6 - 872 y_a6_proc_0 >= -2560
 c93: u_a7 - u_a0 - 1188 y_a0_proc_2 >= -2
 c94: u_a7 - u_a0 - 831 y_a0_proc_1 >= -2
 c95: u_a7 - u_a0 - 623 y_a0_proc_0 >= -1282
 c96: u_a0 - u_a7 - 745 y_a7_proc_2 >= -2559
 c97: u_a0 - u_a7 - 794 y_a7_proc_1 >= -2559
 c98: u_a0 - u_a7 - 1026 y_a7_proc_0 >= -3839
 c99: u_a8 - u_a0 - 831 y_a0_proc_1 >= 0
 c100: u_a8 - u_a0 - 623 y_a0_proc_0 >= -2560
 c101: u_a0 - u_a8 - 1031 y_a8_proc_1 >= -1
 c102: u_a0 - u_a8 - 1280 y_a8_proc_0 >= -2561
 c103: u_a9 - u_a0 - 1188 y_a0_proc_2 >= -2561
 c104: u_a9 - u_a0 - 831 y_a0_proc_1 >= -2561
 c105: u_a0 - u_a9 - 1021 y_a9_proc_2 >= 0
 c106: u_a0 - u_a9 - 1055 y_a9_proc_1 >= 0
 c107: u_a2 - u_a1 - 674 y_a1_proc_2 >= -1
 c108: u_a2 - u_a1 - 1071 y_a1_proc_1 >= -2561
 c109: u_a2 - u_a1 - 551 y_a1_proc_0 >= -2561
 c110: u_a1 - u_a2 - 1001 y_a2_proc_2 >= 0
 c111: u_a1 - u_a2 - 1219 y_a2_proc_1 >= -2560
 c112: u_a1 - u_a2 - 1014 y_a2_proc_0 >= -2560
 c113: u_a3 - u_a1 - 674 y_a1_proc_2 >= -1
 c114: u_a3 - u_a1 - 551 y_a1_proc_0 >= -2561
 c115: u_a1 - u_a3 - 605 y_a3_proc_2 >= 0
 c116: u_a1 - u_a3 - 728 y_a3_proc_0 >= -2560
 c117: u_a4 - u_a1 - 674 y_a1_proc_2 >= 0
 c118: u_a4 - u_a1 - 1071 y_a1_proc_1 >= 0
 c119: u_a4 - u_a1 - 551 y_a1_proc_0 >= -1280
 c120: u_a1 - u_a4 - 1233 y_a4_proc_2 >= -2561
 c121: u_a1 - u_a4 - 352 y_a4_proc_1 >= -2561
 c122: u_a1 - u_a4 - 1134 y_a4_proc_0 >= -3841
 c123: u_a5 - u_a1 - 1071 y_a1_proc_1 >= 0
 c124: u_a1 - u_a5 - 715 y_a5_proc_1 >= -2561
 c125: u_a6 - u_a1 - 674 y_a1_proc_2 >= -2561
 c126: u_a6 - u_a1 - 1071 y_a1_proc_1 >= -2561
 c127: u_a6 - u_a1 - 551 y_a1_proc_0 >= -3841
 c128: u_a1 - u_a6 - 1188 y_a6_proc_2 >= 0
 c129: u_a1 - u_a6 - 934 y_a6_proc_1 >= 0
 c130: u_a1 - u_a6 - 872 y_a6_proc_0 >= -1280
 c131: u_a7 - u_a1 - 674 y_a1_proc_2 >= -1
 c132: u_a7 - u_a1 - 1071 y_a1_proc_1 >= -2561
 c133: u_a7 - u_a1 - 551 y_a1_proc_0 >= -2561
 c134: u_a1 - u_a7 - 745 y_a7_proc_2 >= 0
 c135: u_a1 - u_a7 - 794 y_a7_proc_1 >= -2560
 c136: u_a1 - u_a7 - 1026 y_a7_proc_0 >= -2560
 c137: u_a8 - u_a1 - 1071 y_a1_proc_1 >= -2559
 c138: u_a8 - u_a1 - 551 y_a1_proc_0 >= -3839
 c139: u_a1 - u_a8 - 1031 y_a8_proc_1 >= -2
 c140: u_a1 - u_a8 - 1280 y_a8_proc_0 >= -1282
 c141: u_a9 - u_a1 - 674 y_a1_proc_2 >= -1
 c142: u_a9 - u_a1 - 1071 y_a1_proc_1 >= -2561
 c143: u_a1 - u_a9 - 1021 y_a9_proc_2 >= 0
 c144: u_a1 - u_a9 - 1055 y_a9_proc_1 >= -2560
 c145: u_a3 - u_a2 - 1001 y_a2_proc_2 >= -1
 c146: u_a3 - u_a2 - 1014 y_a2_proc_0 >= -2561
 c147: u_a2 - u_a3 - 605 y_a3_proc_2 >= 0
 c148: u_a2 - u_a3 - 728 y_a3_proc_0 >= -2560
 c149: u_a4 - u_a2 - 1001 y_a2_proc_2 >= -2559
 c150: u_a4 - u_a2 - 1219 y_a2_proc_1 >= -2559
 c151: u_a4 - u_a2 - 1014 y_a2_proc_0 >= -3839
 c152: u_a2 - u_a4 - 1233 y_a4_proc_2 >= -2
 c153: u_a2 - u_a4 - 352 y_a4_proc_1 >= -2
 c154: u_a2 - u_a4 - 1134 y_a4_proc_0 >= -1282
 c155: u_a5 - u_a2 - 1219 y_a2_proc_1 >= 0
 c156: u_a2 - u_a5 - 715 y_a5_proc_1 >= -2561
 c157: u_a6 - u_a2 - 1001 y_a2_proc_2 >= -2560
 c158: u_a6 - u_a2 - 1219 y_a2_proc_1 >= -2560
 c159: u_a6 - u_a2 - 1014 y_a2_proc_0 >= -3840
 c160: u_a2 - u_a6 - 1188 y_a6_proc_2 >= -1
 c161: u_a2 - u_a6 - 934 y_a6_proc_1 >= -1
 c162: u_a2 - u_a6 - 872 y_a6_proc_0 >= -1281
 c163: u_a7 - u_a2 - 1001 y_a2_proc_2 >= -1
 c164: u_a7 - u_a2 - 1219 y_a2_proc_1 >= -2561
 c165: u_a7 - u_a2 - 1014 y_a2_proc_0 >= -2561
 c166: u_a2 - u_a7 - 745 y_a7_proc_2 >= 0
 c167: u_a2 - u_a7 - 794 y_a7_proc_1 >= -2560
 c168: u_a2 - u_a7 - 1026 y_a7_proc_0 >= -2560
 c169: u_a8 - u_a2 - 1219 y_a2_proc_1 >= -2559
 c170: u_a8 - u_a2 - 1014 y_a2_proc_0 >= -3839
 c171: u_a2 - u_a8 - 1031 y_a8_proc_1 >= -2
 c172: u_a2 - u_a8 - 1280 y_a8_proc_0 >= -1282
 c173: u_a9 - u_a2 - 1001 y_a2_proc_2 >= -1
 c174: u_a9 - u_a2 - 1219 y_a2_proc_1 >= -2561
 c175: u_a2 - u_a9 - 1021 y_a9_proc_2 >= 0
 c176: u_a2 - u_a9 - 1055 y_a9_proc_1 >= -2560
 c177: u_a4 - u_a3 - 605 y_a3_proc_2 >= -2559
 c178: u_a4 - u_a3 - 728 y_a3_proc_0 >= -3839
 c179: u_a3 - u_a4 - 1233 y_a4_proc_2 >= -2
 c180: u_a3 - u_a4 - 1134 y_a4_proc_0 >= -1282
 c181: u_a6 - u_a3 - 605 y_a3_proc_2 >= -2560
 c182: u_a6 - u_a3 - 728 y_a3_proc_0 >= -3840
 c183: u_a3 - u_a6 - 1188 y_a6_proc_2 >= -1
 c184: u_a3 - u_a6 - 872 y_a6_proc_0 >= -1281
 c185: u_a7 - u_a3 - 605 y_a3_proc_2 >= 0
 c186: u_a7 - u_a3 - 728 y_a3_proc_0 >= -2560
 c187: u_a3 - u_a7 - 745 y_a7_proc_2 >= -1
 c188: u_a3 - u_a7 - 1026 y_a7_proc_0 >= -2561
 c189: u_a8 - u_a3 - 728 y_a3_proc_0 >= -5119
 c190: u_a3 - u_a8 - 1280 y_a8_proc_0 >= -2
 c191: u_a9 - u_a3 - 605 y_a3_proc_2 >= 0
 c192: u_a3 - u_a9 - 1021 y_a9_proc_2 >= -1
 c193: u_a5 - u_a4 - 352 y_a4_proc_1 >= -1
 c194: u_a4 - u_a5 - 715 y_a5_proc_1 >= 0
 c195: u_a6 - u_a4 - 1233 y_a4_proc_2 >= -2562
 c196: u_a6 - u_a4 - 352 y_a4_proc_1 >= -2
 c197: u_a6 - u_a4 - 1134 y_a4_proc_0 >= -2562
 c198: u_a4 - u_a6 - 1188 y_a6_proc_2 >= -2559
 c199: u_a4 - u_a6 - 934 y_a6_proc_1 >= 1
 c200: u_a4 - u_a6 - 872 y_a6_proc_0 >= -2559
 c201: u_a7 - u_a4 - 1233 y_a4_proc_2 >= -2562
 c202: u_a7 - u_a4 - 352 y_a4_proc_1 >= -2562
 c203: u_a7 - u_a4 - 1134 y_a4_proc_0 >= -3842
 c204: u_a4 - u_a7 - 745 y_a7_proc_2 >= 1
 c205: u_a4 - u_a7 - 794 y_a7_proc_1 >= 1
 c206: u_a4 - u_a7 - 1026 y_a7_proc_0 >= -1279
 c207: u_a8 - u_a4 - 352 y_a4_proc_1 >= -1
 c208: u_a8 - u_a4 - 1134 y_a4_proc_0 >= -2561
 c209: u_a4 - u_a8 - 1031 y_a8_proc_1 >= 0
 c210: u_a4 - u_a8 - 1280 y_a8_proc_0 >= -2560
 c211: u_a9 - u_a4 - 1233 y_a4_proc_2 >= -2
 c212: u_a9 - u_a4 - 352 y_a4_proc_1 >= -2
 c213: u_a4 - u_a9 - 1021 y_a9_proc_2 >= -2559
 c214: u_a4 - u_a9 - 1055 y_a9_proc_1 >= -2559
 c215: u_a6 - u_a5 - 715 y_a5_proc_1 >= -2
 c216: u_a5 - u_a6 - 934 y_a6_proc_1 >= 1
 c217: u_a7 - u_a5 - 715 y_a5_proc_1 >= -2562
 c218: u_a5 - u_a7 - 794 y_a7_proc_1 >= 1
 c219: u_a8 - u_a5 - 715 y_a5_proc_1 >= 0
 c220: u_a5 - u_a8 - 1031 y_a8_proc_1 >= -1
 c221: u_a9 - u_a5 - 715 y_a5_proc_1 >= -2561
 c222: u_a5 - u_a9 - 1055 y_a9_proc_1 >= 0
 c223: u_a7 - u_a6 - 1188 y_a6_proc_2 >= -1
 c224: u_a7 - u_a6 - 934 y_a6_proc_1 >= -1
 c225: u_a7 - u_a6 - 872 y_a6_proc_0 >= -1281
 c226: u_a6 - u_a7 - 745 y_a7_proc_2 >= -2560
 c227: u_a6 - u_a7 - 794 y_a7_proc_1 >= -2560
 c228: u_a6 - u_a7 - 1026 y_a7_proc_0 >= -3840
 c229: u_a8 - u_a6 - 934 y_a6_proc_1 >= 1
 c230: u_a8 - u_a6 - 872 y_a6_proc_0 >= -2559
 c231: u_a6 - u_a8 - 1031 y_a8_proc_1 >= -2
 c232: u_a6 - u_a8 - 1280 y_a8_proc_0 >= -2562
 c233: u_a9 - u_a6 - 1188 y_a6_proc_2 >= -1
 c234: u_a9 - u_a6 - 934 y_a6_proc_1 >= -1
 c235: u_a6 - u_a9 - 1021 y_a9_proc_2 >= -2560
 c236: u_a6 - u_a9 - 1055 y_a9_proc_1 >= -2560
 c237: u_a8 - u_a7 - 794 y_a7_proc_1 >= -2559
 c238: u_a8 - u_a7 - 1026 y_a7_proc_0 >= -3839
 c239: u_a7 - u_a8 - 1031 y_a8_proc_1 >= -2
 c240: u_a7 - u_a8 - 1280 y_a8_proc_0 >= -1282
 c241: u_a9 - u_a7 - 745 y_a7_proc_2 >= 0
 c242: u_a9 - u_a7 - 794 y_a7_proc_1 >= -2560
 c243: u_a7 - u_a9 - 1021 y_a9_proc_2 >= -1
 c244: u_a7 - u_a9 - 1055 y_a9_proc_1 >= -2561
 c245: u_a9 - u_a8 - 1031 y_a8_proc_1 >= -2
 c246: u_a8 - u_a9 - 1055 y_a9_proc_1 >= -2559

Bounds
End
