benchmark/results/graph__10-1000-0.10-03_1/graph__10-1000-0.10-03_1_Quinton_Benders_primal_sub.txt
solution for: Quinton Benders_primal_sub
objective: 0.000247158
status: OPTIMAL_SOLUTION(2)
u_a0=1.000
u_a1=0.833
u_a2=0.586
u_a4=1.913
u_a5=1.481
u_a6=0.251
u_a7=0.150
u_a8=1.658
u_a9=0.334
tau=0.000
y_a0_proc_1=0.000
y_a1_proc_2=0.000
y_a2_proc_2=0.000
y_a3_proc_2=0.000
y_a4_proc_1=0.000
y_a5_proc_1=0.000
y_a6_proc_1=0.000
y_a7_proc_2=0.000
y_a8_proc_1=0.000
y_a9_proc_2=0.000
